NAME : anjos-60-01.-240.tour
COMMENT : Length = -240
COMMENT : Found by LKH [Keld Helsgaun] Sun Apr 13 17:05:01 2025
TYPE : TOUR
DIMENSION : 60
TOUR_SECTION
1
21
12
16
25
6
54
36
13
27
40
55
18
29
7
32
15
41
42
30
50
22
23
11
28
34
48
56
9
46
35
47
31
17
26
37
51
5
57
49
2
4
59
39
14
52
53
3
8
44
38
45
24
33
43
10
19
20
60
58
-1
EOF
